#######################



#######################
Set parameter TimeLimit to value 500
Set parameter SoftMemLimit to value 125
Set parameter MIPFocus to value 3
Set parameter LogFile to value 1202-MIPFocus3-Presolve2-TimeLimit500-k16x240-9.log
Set parameter Presolve to value 2
Set parameter Seed to value 19
Using license file /opt/gurobi/gurobi.lic

Gurobi Optimizer version 12.0.2 build v12.0.2rc0 (linux64 - "Ubuntu 22.04.4 LTS")
Copyright (c) 2025, Gurobi Optimization, LLC

Read MPS format model from file /miplib2010/k16x240.mps.bz2
Reading time = 0.00 seconds
k16x240: 256 rows, 480 columns, 960 nonzeros

Using Gurobi shared library /nfs/shared/static-builds/gurobi1202

CPU model: Intel(R) Xeon(R) E-2388G CPU @ 3.20GHz, instruction set [SSE2|AVX|AVX2|AVX512]
Thread count: 8 physical cores, 16 logical processors, using up to 16 threads

Non-default parameters:
TimeLimit  500
SoftMemLimit  125
MIPFocus  3
Presolve  2
Seed  19

Optimize a model with 256 rows, 480 columns and 960 nonzeros
Model fingerprint: 0x4e80885f
Variable types: 240 continuous, 240 integer (240 binary)
Coefficient statistics:
  Matrix range     [1e+00, 1e+03]
  Objective range  [1e+00, 1e+03]
  Bounds range     [1e+00, 1e+03]
  RHS range        [4e+00, 4e+02]
Found heuristic solution: objective 17517.000000
Presolve time: 0.00s
Presolved: 256 rows, 480 columns, 960 nonzeros
Variable types: 240 continuous, 240 integer (240 binary)
Root relaxation presolve removed 241 rows and 240 columns
Root relaxation presolved: 15 rows, 240 columns, 450 nonzeros


Root relaxation: objective 2.769838e+03, 16 iterations, 0.00 seconds (0.00 work units)

    Nodes    |    Current Node    |     Objective Bounds      |     Work
 Expl Unexpl |  Obj  Depth IntInf | Incumbent    BestBd   Gap | It/Node Time

     0     0 2769.83800    0   14 17517.0000 2769.83800  84.2%     -    0s
H    0     0                    11359.000000 2769.83800  75.6%     -    0s
H    0     0                    11195.000000 2769.83800  75.3%     -    0s
H    0     0                    11174.000000 8116.87580  27.4%     -    0s
H    0     0                    11172.000000 8116.87580  27.3%     -    0s
H    0     0                    11170.000000 8116.87580  27.3%     -    0s
H    0     0                    11077.000000 8116.87580  26.7%     -    0s
     0     0 8116.87580    0   26 11077.0000 8116.87580  26.7%     -    0s
H    0     0                    11045.000000 8182.85928  25.9%     -    0s
H    0     0                    11001.000000 8182.85928  25.6%     -    0s
     0     0 8748.17806    0   23 11001.0000 8748.17806  20.5%     -    0s
     0     0 8751.29955    0   20 11001.0000 8751.29955  20.4%     -    0s
     0     0 8791.28017    0   21 11001.0000 8791.28017  20.1%     -    0s
     0     0 8810.95744    0   18 11001.0000 8810.95744  19.9%     -    0s
     0     0 8982.34277    0   28 11001.0000 8982.34277  18.3%     -    0s
H    0     0                    10998.000000 8982.34277  18.3%     -    0s
H    0     0                    10954.000000 8982.34277  18.0%     -    0s
H    0     0                    10869.000000 8982.34277  17.4%     -    0s
H    0     0                    10807.000000 8982.34277  16.9%     -    0s
H    0     0                    10681.000000 8982.34277  15.9%     -    0s
     0     0 9046.36529    0   35 10681.0000 9046.36529  15.3%     -    0s
     0     0 9094.16090    0   30 10681.0000 9094.16090  14.9%     -    0s
     0     0 9141.08934    0   27 10681.0000 9141.08934  14.4%     -    0s
     0     0 9141.08934    0   27 10681.0000 9141.08934  14.4%     -    0s
H    0     0                    10678.000000 9141.08934  14.4%     -    0s
     0     2 9141.08934    0   27 10678.0000 9141.08934  14.4%     -    0s
H  786   801                    10674.000000 9533.48423  10.7%  30.5    0s
  4857  3346 10492.1867   23   27 10674.0000 10285.6002  3.64%  86.9    5s
 18266  7833     cutoff   38      10674.0000 10524.0142  1.41%  65.1   10s

Cutting planes:
  Lift-and-project: 5
  Cover: 2
  Implied bound: 8
  Dual implied bound: 7
  MIR: 164
  Flow cover: 540
  Flow path: 47
  Zero half: 24
  Network: 23
  Relax-and-lift: 2

Explored 35914 nodes (1575761 simplex iterations) in 12.48 seconds (17.45 work units)
Thread count was 16 (of 16 available processors)

Solution count 10: 10674 10678 10681 ... 11077

Optimal solution found (tolerance 1.00e-04)
Best objective 1.067400000000e+04, best bound 1.067300000000e+04, gap 0.0094%
